Results/Experiment 1 Results/Existing Benchmark/RES_20/i-20-100-20.txt
solutions: 1 nodes: 3  modelTime: 105  solveTime: 13  totalTime: 120  modelSize: 7358  readTime: 2 matchingSize: 10
