Results/Experiment 2 Results/Existing Benchmark/i-20-100-20.lp
clingo version 5.4.0
Reading from tempSRTISolver.lp ...
Solving...
Answer: 1
matched(3,2) matched(2,3) matched(8,4) matched(11,5) matched(17,6) matched(19,7) matched(4,8) matched(16,9) matched(20,10) matched(5,11) matched(14,12) matched(15,13) matched(12,14) matched(13,15) matched(9,16) matched(6,17) matched(1,18) matched(7,19) matched(10,20) matched(18,1)
Optimization: 91
OPTIMUM FOUND

Models       : 1
  Optimum    : yes
Optimization : 91
Calls        : 1
Time         : 0.074s (Solving: 0.00s 1st Model: 0.00s Unsat: 0.00s)
CPU Time     : 0.053s
